
Gurobi 12.0.2 (win64) logging started Thu Nov 20 17:26:40 2025

Set parameter LogFile to value "resultados DATA_1_n30m10b2d1\instancia_3_log.txt"
Set parameter TimeLimit to value 3600
Gurobi Optimizer version 12.0.2 build v12.0.2rc0 (win64 - Windows 10.0 (19045.2))

CPU model: Intel(R) Core(TM) i5-6300U CPU @ 2.40GHz, instruction set [SSE2|AVX|AVX2]
Thread count: 2 physical cores, 4 logical processors, using up to 4 threads

Non-default parameters:
TimeLimit  3600

Optimize a model with 13738 rows, 76094 columns and 31480152 nonzeros
Model fingerprint: 0x15d4566e
Variable types: 0 continuous, 76094 integer (76094 binary)
Coefficient statistics:
  Matrix range     [1e+00, 1e+00]
  Objective range  [4e-03, 6e-02]
  Bounds range     [1e+00, 1e+00]
  RHS range        [1e+00, 1e+02]
Found heuristic solution: objective 0.8830000
Presolve removed 0 rows and 0 columns (presolve time = 6s)...
Presolve removed 0 rows and 0 columns (presolve time = 11s)...
Presolve removed 0 rows and 2762 columns (presolve time = 15s)...
Presolve removed 0 rows and 20489 columns (presolve time = 20s)...
Presolve removed 0 rows and 24530 columns (presolve time = 25s)...
Presolve removed 0 rows and 30703 columns (presolve time = 30s)...
Presolve removed 0 rows and 30703 columns (presolve time = 35s)...
Presolve removed 0 rows and 30703 columns (presolve time = 40s)...
Presolve removed 0 rows and 30703 columns (presolve time = 46s)...
Presolve removed 0 rows and 30703 columns (presolve time = 50s)...
Presolve removed 0 rows and 30703 columns (presolve time = 55s)...
Presolve removed 0 rows and 30703 columns (presolve time = 60s)...
Presolve removed 0 rows and 30703 columns (presolve time = 65s)...
Presolve removed 0 rows and 30703 columns (presolve time = 71s)...
Presolve removed 0 rows and 30703 columns (presolve time = 75s)...
Presolve removed 0 rows and 30703 columns (presolve time = 80s)...
Presolve removed 0 rows and 30703 columns (presolve time = 85s)...
Presolve removed 0 rows and 30703 columns (presolve time = 90s)...
Presolve removed 0 rows and 30703 columns (presolve time = 98s)...
Presolve removed 0 rows and 30703 columns (presolve time = 100s)...
Presolve removed 0 rows and 30703 columns (presolve time = 105s)...
Presolve removed 0 rows and 30703 columns (presolve time = 110s)...
Presolve removed 0 rows and 30703 columns (presolve time = 115s)...
Presolve removed 0 rows and 30703 columns (presolve time = 120s)...
Presolve removed 0 rows and 30703 columns (presolve time = 125s)...
Presolve removed 0 rows and 30703 columns (presolve time = 130s)...
Presolve removed 0 rows and 30703 columns (presolve time = 135s)...
Presolve removed 0 rows and 30703 columns (presolve time = 140s)...
Presolve removed 0 rows and 30703 columns (presolve time = 145s)...
Presolve removed 0 rows and 30703 columns (presolve time = 150s)...
Presolve removed 0 rows and 30703 columns (presolve time = 155s)...
Presolve removed 0 rows and 30703 columns (presolve time = 160s)...
Presolve removed 0 rows and 30703 columns (presolve time = 165s)...
Presolve removed 0 rows and 30703 columns (presolve time = 170s)...
Presolve removed 0 rows and 30703 columns (presolve time = 175s)...
Presolve removed 0 rows and 30703 columns (presolve time = 180s)...
Presolve removed 0 rows and 30703 columns (presolve time = 185s)...
Presolve removed 0 rows and 30703 columns (presolve time = 190s)...
Presolve removed 0 rows and 30703 columns (presolve time = 195s)...
Presolve removed 0 rows and 30703 columns (presolve time = 200s)...
Presolve removed 0 rows and 30703 columns (presolve time = 205s)...
Presolve removed 0 rows and 30703 columns (presolve time = 210s)...
Presolve removed 0 rows and 30703 columns (presolve time = 215s)...
Presolve removed 0 rows and 30703 columns (presolve time = 220s)...
Presolve removed 0 rows and 30703 columns (presolve time = 225s)...
Presolve removed 0 rows and 30703 columns (presolve time = 230s)...
Presolve removed 0 rows and 30703 columns (presolve time = 235s)...
Presolve removed 0 rows and 30703 columns (presolve time = 240s)...
Presolve removed 0 rows and 30703 columns (presolve time = 245s)...
Presolve removed 0 rows and 30703 columns (presolve time = 250s)...
Presolve removed 0 rows and 30703 columns (presolve time = 255s)...
Presolve removed 0 rows and 30703 columns (presolve time = 260s)...
Presolve removed 0 rows and 30703 columns (presolve time = 265s)...
Presolve removed 0 rows and 30703 columns (presolve time = 270s)...
Presolve removed 0 rows and 30703 columns (presolve time = 275s)...
Presolve removed 0 rows and 30703 columns (presolve time = 280s)...
Presolve removed 0 rows and 30703 columns (presolve time = 285s)...
Presolve removed 0 rows and 30703 columns (presolve time = 290s)...
Presolve removed 0 rows and 30703 columns (presolve time = 295s)...
Presolve removed 0 rows and 30703 columns (presolve time = 300s)...
Presolve removed 0 rows and 30703 columns (presolve time = 305s)...
Presolve removed 0 rows and 30703 columns (presolve time = 310s)...
Presolve removed 0 rows and 30703 columns (presolve time = 315s)...
Presolve removed 0 rows and 30703 columns (presolve time = 320s)...
Presolve removed 0 rows and 30703 columns (presolve time = 325s)...
Presolve removed 0 rows and 30703 columns (presolve time = 330s)...
Presolve removed 0 rows and 30703 columns (presolve time = 335s)...
Presolve removed 0 rows and 30703 columns (presolve time = 340s)...
Presolve removed 0 rows and 30703 columns (presolve time = 345s)...
Presolve removed 0 rows and 30703 columns (presolve time = 350s)...
Presolve removed 0 rows and 30703 columns (presolve time = 355s)...
Presolve removed 0 rows and 30703 columns (presolve time = 360s)...
Presolve removed 0 rows and 30703 columns (presolve time = 365s)...
Presolve removed 0 rows and 30703 columns (presolve time = 370s)...
Presolve removed 0 rows and 30703 columns (presolve time = 375s)...
Presolve removed 0 rows and 30703 columns (presolve time = 380s)...
Presolve removed 0 rows and 30703 columns (presolve time = 385s)...
Presolve removed 0 rows and 30703 columns (presolve time = 390s)...
Presolve removed 0 rows and 30703 columns (presolve time = 395s)...
Presolve removed 0 rows and 30703 columns (presolve time = 400s)...
Presolve removed 0 rows and 30703 columns (presolve time = 406s)...
Presolve removed 0 rows and 30703 columns
Presolve time: 405.58s
Presolved: 13738 rows, 45391 columns, 18469111 nonzeros
Found heuristic solution: objective 0.7163333
Variable types: 0 continuous, 45391 integer (45391 binary)
Deterministic concurrent LP optimizer: dual simplex and barrier
Showing barrier log only...

Root barrier log...

Ordering time: 0.21s

Barrier statistics:
 AA' NZ     : 1.352e+06
 Factor NZ  : 1.462e+06 (roughly 15 MB of memory)
 Factor Ops : 1.627e+09 (less than 1 second per iteration)
 Threads    : 1

                  Objective                Residual
Iter       Primal          Dual         Primal    Dual     Compl     Time
   0   1.38680243e+03  1.03466088e+00  4.04e+03 1.30e-03  1.01e-01   425s
   1   4.37398294e+01  5.44141130e+00  1.32e+02 2.32e-03  4.15e-03   427s
   2   1.09925619e+01  4.14094874e+00  3.18e+01 7.83e-04  1.23e-03   428s
   3   3.49723483e+00  2.78607223e+00  8.05e+00 4.14e-04  3.96e-04   430s
   4   2.20163058e+00  1.98240281e+00  4.06e+00 2.67e-04  2.16e-04   431s
   5   1.63883253e+00  2.10496224e+00  2.31e+00 2.33e-04  1.65e-04   432s
   6   9.92872155e-01  1.39011390e+00  2.31e-01 1.84e-05  4.28e-05   433s
   7   9.73112867e-01  1.05608882e+00  7.53e-03 0.00e+00  6.37e-06   435s
   8   9.90077172e-01  1.01397170e+00  9.43e-04 0.00e+00  1.76e-06   436s
   9   9.98036659e-01  1.00364182e+00  1.80e-05 0.00e+00  4.04e-07   437s
  10   9.99146416e-01  1.00120586e+00  0.00e+00 0.00e+00  1.48e-07   439s
  11   9.99712788e-01  1.00044031e+00  4.56e-07 0.00e+00  5.23e-08   440s
  12   9.99930876e-01  1.00008907e+00  0.00e+00 0.00e+00  1.14e-08   441s
  13   9.99988901e-01  1.00003504e+00  0.00e+00 0.00e+00  3.31e-09   442s
  14   9.99995410e-01  1.00001932e+00  0.00e+00 0.00e+00  1.72e-09   444s
  15   9.99999434e-01  1.00000162e+00  0.00e+00 0.00e+00  1.56e-10   446s
  16   9.99999983e-01  1.00000007e+00  0.00e+00 0.00e+00  6.57e-12   447s
  17   1.00000000e+00  1.00000000e+00  6.38e-10 8.09e-16  6.57e-15   449s

Barrier solved model in 17 iterations and 448.62 seconds (146.81 work units)
Optimal objective 1.00000000e+00


Root crossover log...

      30 DPushes remaining with DInf 0.0000000e+00               450s
       0 DPushes remaining with DInf 0.0000000e+00               451s

    4391 PPushes remaining with PInf 0.0000000e+00               451s
    3993 PPushes remaining with PInf 0.0000000e+00               455s
    3391 PPushes remaining with PInf 0.0000000e+00               460s
    2677 PPushes remaining with PInf 0.0000000e+00               465s
    1924 PPushes remaining with PInf 0.0000000e+00               470s
    1133 PPushes remaining with PInf 0.0000000e+00               475s
     223 PPushes remaining with PInf 0.0000000e+00               481s
       0 PPushes remaining with PInf 0.0000000e+00               482s

  Push phase complete: Pinf 0.0000000e+00, Dinf 1.0454945e-13    482s


Root simplex log...

Iteration    Objective       Primal Inf.    Dual Inf.      Time
    4424    1.0000000e+00   0.000000e+00   0.000000e+00    483s
Concurrent spin time: 0.23s

Solved with barrier

Use crossover to convert LP symmetric solution to basic solution...

Root crossover log...

    4426 variables added to crossover basis                      495s
    4456 variables added to crossover basis                      495s
    4906 variables added to crossover basis                      500s
    5358 variables added to crossover basis                      505s
    5598 variables added to crossover basis                      510s
    5898 variables added to crossover basis                      515s
    6078 variables added to crossover basis                      520s
    6258 variables added to crossover basis                      525s
    6438 variables added to crossover basis                      531s
    6558 variables added to crossover basis                      536s
    6798 variables added to crossover basis                      542s
    6888 variables added to crossover basis                      546s
    6978 variables added to crossover basis                      551s
    7038 variables added to crossover basis                      557s
    7128 variables added to crossover basis                      561s
    7218 variables added to crossover basis                      567s
    7279 variables added to crossover basis                      573s
    7339 variables added to crossover basis                      577s
    7399 variables added to crossover basis                      583s
    7429 variables added to crossover basis                      588s
    7489 variables added to crossover basis                      590s
    7579 variables added to crossover basis                      599s
    7639 variables added to crossover basis                      603s
    7699 variables added to crossover basis                      607s
    7729 variables added to crossover basis                      611s
    7759 variables added to crossover basis                      617s
    7789 variables added to crossover basis                      623s
    7819 variables added to crossover basis                      626s
    7879 variables added to crossover basis                      632s
    7909 variables added to crossover basis                      636s
    7969 variables added to crossover basis                      644s
    7999 variables added to crossover basis                      648s
    8029 variables added to crossover basis                      651s
    8059 variables added to crossover basis                      656s
    8089 variables added to crossover basis                      662s
    8149 variables added to crossover basis                      670s
    8179 variables added to crossover basis                      676s
    8209 variables added to crossover basis                      684s
    8239 variables added to crossover basis                      688s
    8269 variables added to crossover basis                      694s
    8299 variables added to crossover basis                      703s
    8329 variables added to crossover basis                      706s
    8389 variables added to crossover basis                      713s
    8419 variables added to crossover basis                      720s
    8449 variables added to crossover basis                      728s
    8479 variables added to crossover basis                      740s
    8509 variables added to crossover basis                      749s

     198 DPushes remaining with DInf 0.0000000e+00               793s
     197 DPushes remaining with DInf 0.0000000e+00               813s
      58 DPushes remaining with DInf 0.0000000e+00               869s
       0 DPushes remaining with DInf 0.0000000e+00               909s

    1276 PPushes remaining with PInf 0.0000000e+00               910s
    1275 PPushes remaining with PInf 0.0000000e+00               931s
    1150 PPushes remaining with PInf 0.0000000e+00               981s
    1012 PPushes remaining with PInf 0.0000000e+00              1018s
     885 PPushes remaining with PInf 0.0000000e+00              1075s
     758 PPushes remaining with PInf 0.0000000e+00              1134s
     630 PPushes remaining with PInf 0.0000000e+00              1184s
     502 PPushes remaining with PInf 0.0000000e+00              1229s
     366 PPushes remaining with PInf 0.0000000e+00              1276s
     229 PPushes remaining with PInf 0.0000000e+00              1330s
      94 PPushes remaining with PInf 0.0000000e+00              1378s
       0 PPushes remaining with PInf 0.0000000e+00              1417s

  Push phase complete: Pinf 0.0000000e+00, Dinf 8.1056292e-09   1417s


Root simplex log...

Iteration    Objective       Primal Inf.    Dual Inf.      Time
    5901    1.0000000e+00   0.000000e+00   0.000000e+00   1441s

Root relaxation: objective 1.000000e+00, 5901 iterations, 1029.45 seconds (534.56 work units)

    Nodes    |    Current Node    |     Objective Bounds      |     Work
 Expl Unexpl |  Obj  Depth IntInf | Incumbent    BestBd   Gap | It/Node Time

     0     0    1.00000    0 12621    0.88300    1.00000  13.3%     - 3601s

Explored 1 nodes (8594 simplex iterations) in 3604.11 seconds (2116.44 work units)
Thread count was 4 (of 4 available processors)

Solution count 2: 0.883 0.716333 

Time limit reached
Best objective 8.830000000000e-01, best bound 1.000000000000e+00, gap 13.2503%
